Geometry = GenFormat {
61  S
C He
1  1    0.1287912958E+02    0.1133315916E+02    0.1580604984E+02
2  1    0.1372688907E+02    0.1250000000E+02    0.1580604984E+02
3  1    0.1287912958E+02    0.1366684084E+02    0.1580604984E+02
4  1    0.1150742588E+02    0.1322114732E+02    0.1580604984E+02
5  1    0.1150742588E+02    0.1177885269E+02    0.1580604984E+02
6  1    0.1423678379E+02    0.1551161591E+02    0.1309066994E+02
7  1    0.1286509586E+02    0.1595730439E+02    0.1309066994E+02
8  1    0.1225163761E+02    0.1551150363E+02    0.1431749580E+02
9  1    0.1324420478E+02    0.1479042677E+02    0.1507586045E+02
10  1    0.1447104679E+02    0.1479037385E+02    0.1431749577E+02
11  1    0.1017247878E+02    0.1508242002E+02    0.1309066993E+02
12  1    0.9324728987E+01    0.1391559259E+02    0.1309066991E+02
13  1    0.9559141653E+01    0.1319439915E+02    0.1431749577E+02
14  1    0.1055164662E+02    0.1391556161E+02    0.1507586045E+02
15  1    0.1093081196E+02    0.1508234135E+02    0.1431749576E+02
16  1    0.9324728983E+01    0.1108440741E+02    0.1309066991E+02
17  1    0.1017247878E+02    0.9917579983E+01    0.1309066993E+02
18  1    0.1093081196E+02    0.9917658649E+01    0.1431749575E+02
19  1    0.1055164662E+02    0.1108443839E+02    0.1507586044E+02
20  1    0.9559141653E+01    0.1180560086E+02    0.1431749577E+02
21  1    0.1286509585E+02    0.9042695609E+01    0.1309066994E+02
22  1    0.1423678378E+02    0.9488384091E+01    0.1309066993E+02
23  1    0.1447104679E+02    0.1020962615E+02    0.1431749577E+02
24  1    0.1324420478E+02    0.1020957322E+02    0.1507586045E+02
25  1    0.1225163761E+02    0.9488496370E+01    0.1431749580E+02
26  1    0.1590091269E+02    0.1177886096E+02    0.1309066995E+02
27  1    0.1590091269E+02    0.1322113903E+02    0.1309066995E+02
28  1    0.1528736194E+02    0.1366681245E+02    0.1431749580E+02
29  1    0.1490829724E+02    0.1250000000E+02    0.1507586046E+02
30  1    0.1528736193E+02    0.1133318755E+02    0.1431749580E+02
31  1    0.1544093742E+02    0.1319440884E+02    0.1068245965E+02
32  1    0.1444833480E+02    0.1391554811E+02    0.9924232425E+01
33  1    0.1406922169E+02    0.1508241355E+02    0.1068245966E+02
34  1    0.1482750531E+02    0.1508243215E+02    0.1190929969E+02
35  1    0.1567527763E+02    0.1391557370E+02    0.1190929970E+02
36  1    0.1274837760E+02    0.1551158182E+02    0.1068245962E+02
37  1    0.1175580232E+02    0.1479040493E+02    0.9924232422E+01
38  1    0.1052889495E+02    0.1479042816E+02    0.1068245965E+02
39  1    0.1076319976E+02    0.1551160452E+02    0.1190929968E+02
40  1    0.1213492416E+02    0.1595730485E+02    0.1190929968E+02
41  1    0.9712568403E+01    0.1366685108E+02    0.1068245962E+02
42  1    0.1009172573E+02    0.1250000000E+02    0.9924232412E+01
43  1    0.9712568400E+01    0.1133314892E+02    0.1068245962E+02
44  1    0.9099093060E+01    0.1177884180E+02    0.1190929967E+02
45  1    0.9099093059E+01    0.1322115821E+02    0.1190929966E+02
46  1    0.1052889494E+02    0.1020957184E+02    0.1068245964E+02
47  1    0.1175580232E+02    0.1020959507E+02    0.9924232418E+01
48  1    0.1274837760E+02    0.9488418178E+01    0.1068245962E+02
49  1    0.1213492416E+02    0.9042695153E+01    0.1190929967E+02
50  1    0.1076319976E+02    0.9488395484E+01    0.1190929969E+02
51  1    0.1406922169E+02    0.9917586449E+01    0.1068245966E+02
52  1    0.1444833480E+02    0.1108445189E+02    0.9924232422E+01
53  1    0.1544093741E+02    0.1180559116E+02    0.1068245965E+02
54  1    0.1567527763E+02    0.1108442630E+02    0.1190929970E+02
55  1    0.1482750530E+02    0.9917567851E+01    0.1190929969E+02
56  1    0.1349256604E+02    0.1177885856E+02    0.9194110599E+01
57  1    0.1212087352E+02    0.1133316865E+02    0.9194110605E+01
58  1    0.1127312092E+02    0.1250000000E+02    0.9194110611E+01
59  1    0.1212087352E+02    0.1366683135E+02    0.9194110607E+01
60  1    0.1349256604E+02    0.1322114144E+02    0.9194110601E+01
61  2    0.1249999991E+02    0.1249999999E+02    0.1249948305E+02
0.0000000000E+00    0.0000000000E+00    0.0000000000E+00
0.2500000000E+02    0.0000000000E+00    0.0000000000E+00
0.0000000000E+00    0.2500000000E+02    0.0000000000E+00
0.0000000000E+00    0.0000000000E+00    0.2500000000E+02
}
Driver = VelocityVerlet {
  Steps = 200000
  TimeStep [fs] = 0.5
  Thermostat = NoseHoover {
    Temperature [K] = 500
    ChainLength = 3
    CouplingStrength [Hz] = 6000000000000.0
    Order = 3
    IntegratorSteps = 1
    AdaptFillingTemp = No
  }
  Masses = Mass {
    Atoms = He
    MassPerAtom [amu] = 3
  }
  MDRestartFrequency = 1
  MovedAtoms = "1:-1"
  Velocities = {}
  KeepStationary = Yes
  OutputPrefix = "geo_end"
  Plumed = No
  Barostat = {}
}
Hamiltonian = xTB {
  Method = "GFN2-xTB"
  Filling = Fermi {
    Temperature [K] = 300
    IndependentKFilling = No
  }
  kPointsAndWeights = SuperCellFolding {
1   0   0
0   1   0
0   0   1
0.0 0.0 0.0
  }
  ShellResolvedSCC = Yes
  SCC = Yes
  ReadInitialCharges = No
  InitialCharges = {}
  SCCTolerance = 1.0000000000000001E-005
  EwaldParameter = 0.0000000000000000
  EwaldTolerance = 1.0000000000000001E-009
  ConvergentSCCOnly = Yes
  SpinPolarisation = {}
  ElectricField = {}
  Solver = RelativelyRobust {}
  Charge = 0.0000000000000000
  MaxSCCIterations = 100
  Dispersion = {}
  Solvation = {}
  Electrostatics = GammaFunctional {}
  Differentiation = FiniteDiff {
    Delta = 1.2207031250000000E-004
  }
  ForceEvaluation = "Traditional"
  Mixer = Broyden {
    MixingParameter = 0.20000000000000001
    InverseJacobiWeight = 1.0000000000000000E-002
    MinimalWeight = 1.0000000000000000
    MaximalWeight = 100000.00000000000
    WeightFactor = 1.0000000000000000E-002
  }
}
Options = {
  WriteResultsTag = Yes
  WriteDetailedOut = Yes
  WriteAutotestTag = No
  WriteDetailedXML = No
  RandomSeed = 0
  WriteHS = No
  WriteRealHS = No
  MinimiseMemoryUsage = No
  ShowFoldedCoords = No
  TimingVerbosity = 1
  WriteCharges = Yes
  WriteChargesAsText = No
  BinaryAccessTypes = {
 "stream"
  }
}
ParserOptions = {
  IgnoreUnprocessedNodes = Yes
  ParserVersion = 13
  WriteHSDInput = Yes
  StopAfterParsing = No
}
Parallel = {
  UseOmpThreads = Yes
  Groups = 1
}
Reks = None {}
Analysis = {
  ProjectStates = {}
  WriteEigenvectors = No
  WriteBandOut = Yes
  MullikenAnalysis = Yes
  WriteNetCharges = No
  AtomResolvedEnergies = No
  CalculateForces = No
}
ExcitedState = {}
